c ren 1 -> 1
c ren 2 -> 2
c ren 3 -> 3
c ren 4 -> 4
c ren 5 -> 5
c ren 6 -> 6
c ren 7 -> 7
c ren 8 -> 8
c ren 9 -> 9
c ren 10 -> 10
c ren 11 -> 11
c ren 12 -> 12
c ren 13 -> 13
c ren 14 -> 14
c ren 15 -> 15
c ren 16 -> 16
c ren 17 -> 17
c ren 18 -> 18
c ren 19 -> 19
c ren 20 -> 20
c ren 21 -> 21
c ren 22 -> 22
c ren 23 -> 23
c ren 24 -> 24
c ren 25 -> 25
c ren 26 -> 26
c ren 27 -> 27
c ren 28 -> 28
c ren 29 -> 29
c ren 30 -> 30
c ren 31 -> 31
c ren 32 -> 32
c ren 33 -> 33
c ren 34 -> 34
c ren 35 -> 35
c ren 36 -> 36
c ren 37 -> 37
c ren 38 -> 38
c ren 39 -> 39
c ren 40 -> 40
c ren 41 -> 41
c ren 42 -> 42
c ren 43 -> 43
c ren 44 -> 44
c ren 45 -> 45
c ren 46 -> 46
c ren 47 -> 47
c ren 48 -> 48
c ren 49 -> 49
c ren 50 -> 50
c ren 51 -> 51
c ren 52 -> 52
c ren 53 -> 53
c ren 54 -> 54
c ren 55 -> 55
c ren 56 -> 56
c ren 57 -> 57
c ren 58 -> 58
c ren 59 -> 59
c ren 60 -> 60
c ren 61 -> 61
c ren 62 -> 62
c ren 63 -> 63
c ren 64 -> 64
c ren 65 -> 65
c ren 66 -> 66
c ren 67 -> 67
c ren 68 -> 68
c ren 69 -> 69
c ren 70 -> 70
c ren 71 -> 71
c ren 75 -> 72
c ren 78 -> 73
c ren 82 -> 74
c ren 93 -> 75
c ren 94 -> 76
c ren 102 -> 77
c ren 105 -> 78
c ren 108 -> 79
c ren 114 -> 80
c ren 116 -> 81
c ren 123 -> 82
c ren 124 -> 83
c ren 135 -> 84
c ren 146 -> 85
c ren 159 -> 86
c ren 162 -> 87
c ren 165 -> 88
c ren 174 -> 89
c ren 176 -> 90
c ren 183 -> 91
c ren 196 -> 92
c ren 201 -> 93
c ren 205 -> 94
c ren 207 -> 95
c ren 208 -> 96
c ren 209 -> 97
c ren 210 -> 98
c ren 211 -> 99
c ren 212 -> 100
c ren 213 -> 101
c ren 214 -> 102
c ren 215 -> 103
c ren 216 -> 104
c ren 217 -> 105
c ren 218 -> 106
c ren 219 -> 107
c ren 220 -> 108
c ren 221 -> 109
c ren 250 -> 110
c ren 266 -> 111
c ren 273 -> 112
c ren 282 -> 113
c ren 283 -> 114
c ren 284 -> 115
c ren 285 -> 116
c ren 286 -> 117
c ren 287 -> 118
c ren 288 -> 119
c ren 289 -> 120
c ren 290 -> 121
c ren 291 -> 122
c ren 292 -> 123
c ren 293 -> 124
c ren 294 -> 125
c ren 295 -> 126
c ren 296 -> 127
c ren 297 -> 128
c ren 298 -> 129
c ren 299 -> 130
c ren 300 -> 131
c ren 301 -> 132
c ren 303 -> 133
c ren 304 -> 134
c ren 305 -> 135
c ren 306 -> 136
c ren 307 -> 137
c ren 308 -> 138
c ren 309 -> 139
c ren 310 -> 140
c ren 311 -> 141
c ren 312 -> 142
c ren 313 -> 143
c ren 314 -> 144
c ren 315 -> 145
c ren 316 -> 146
c ren 317 -> 147
c ren 318 -> 148
c ren 319 -> 149
p cnf 149 333
a 1 2 3 4 5 6 7 8 9 10 11 12 13 14 15 16 17 18 19 20 21 22 23 24 25 26 27 28 29 30 31 32 33 34 35 36 37 38 39 40 41 42 43 44 45 46 47 48 49 50 51 52 53 54 55 56 57 58 59 60 61 62 63 64 65 66 67 68 69 70 71 0
d 95 33 34 0
d 96 39 40 0
d 97 35 36 0
d 98 49 50 0
d 99 53 54 55 56 57 58 59 60 61 0
d 100 53 54 55 56 57 58 59 60 61 0
d 101 37 38 0
d 102 51 52 0
d 103 41 42 43 44 45 46 47 48 0
d 104 41 42 43 44 45 46 47 48 0
d 105 41 42 43 44 45 46 47 48 0
d 106 41 42 43 44 45 46 47 48 0
d 107 62 63 64 65 66 67 68 69 70 71 0
d 108 62 63 64 65 66 67 68 69 70 71 0
d 109 62 63 64 65 66 67 68 69 70 71 0
e 72 73 74 75 76 77 78 79 80 81 82 83 84 85 86 87 88 89 90 91 92 93 94 110 111 112 113 114 115 116 117 118 119 120 121 122 123 124 125 126 127 128 129 130 131 132 133 134 135 136 137 138 139 140 141 142 143 144 145 146 147 148 149 0
-11 72 73 76 77 78 79 83 86 -91 93 0
11 -27 -94 0
-72 75 82 -92 -93 0
-10 -72 0
26 -72 0
10 -26 72 0
9 11 -26 -27 -75 0
-72 -94 0
27 72 73 76 77 78 79 83 86 -91 93 0
-9 -73 0
25 -73 0
9 -25 73 0
9 -72 -75 0
-73 82 -92 -93 0
27 72 73 74 75 0
12 74 0
-28 74 0
-11 27 75 82 -92 -93 0
9 10 -27 -74 -75 0
9 10 11 -74 -75 0
-9 25 75 0
-73 -94 0
-11 72 73 74 75 0
-11 27 72 73 75 0
-73 -75 0
9 10 11 -27 -75 0
29 90 91 0
-10 26 75 82 -92 -93 0
10 11 -25 -27 -75 0
-12 -76 0
28 -76 0
-12 28 -74 0
-99 103 -105 -111 -112 0
-10 26 73 75 0
11 -27 75 82 -92 -93 0
-25 -72 -75 0
-86 -94 0
-7 -77 0
23 -77 0
7 -23 77 0
-7 23 -80 0
-77 82 -92 -93 0
-6 -78 0
22 -78 0
-78 82 -92 -93 0
5 78 79 101 -110 0
-5 -79 0
21 -79 0
-79 -94 0
78 79 80 82 0
7 80 0
-23 80 0
6 81 0
-22 81 0
-5 21 82 0
-21 -77 -81 -82 0
8 -21 78 79 83 96 -110 0
-77 -94 0
80 82 -92 -93 0
-8 -21 24 78 79 96 -111 0
-5 21 -97 111 0
5 78 79 101 -111 0
-78 -97 111 0
-8 -83 0
24 -83 0
-99 103 107 -111 -112 0
5 79 81 -111 0
81 -94 0
79 81 82 0
-16 32 -94 0
13 -29 -91 0
1 3 -20 -85 92 0
-3 -4 17 -19 -20 84 -85 -86 0
3 4 -17 -20 -85 86 0
-3 4 17 -19 20 84 -85 -86 0
1 4 -19 -20 -85 86 0
-2 -84 0
18 -84 0
2 -18 84 0
-2 18 -85 0
-1 85 -92 0
3 -17 -19 -85 92 0
1 -3 19 86 -92 0
-1 3 4 19 20 84 -85 -86 0
3 -17 -19 -85 86 0
1 -17 92 0
-1 -3 4 -19 20 84 -85 -86 0
17 85 -92 0
2 85 0
-18 85 0
1 3 -19 -85 92 0
-1 17 -92 0
1 -3 19 -85 -86 92 0
1 3 -19 -85 86 0
-3 17 19 84 -85 -92 0
1 4 -20 -85 86 -92 0
3 -4 17 19 20 84 -92 0
-1 -3 -4 20 84 -92 0
3 -17 -20 -85 92 0
-1 -3 -4 -19 -20 84 -85 -86 0
-3 -4 17 -19 20 84 -92 0
1 -84 86 0
1 4 -19 -85 92 0
-17 -84 92 0
3 4 -17 -85 92 0
3 -4 17 19 -20 84 -85 -86 0
-17 -84 86 0
1 -17 86 0
-3 -17 19 -85 -86 92 0
3 4 17 19 20 84 -85 -86 0
-1 17 -86 0
-1 -4 19 20 84 -92 0
-1 3 -4 19 -20 84 -85 -86 0
1 -19 -20 -85 92 0
1 3 4 -20 -85 86 0
-86 -92 -93 0
-15 -87 0
31 -87 0
15 -31 87 0
-15 31 -89 0
-11 -13 -16 72 73 75 76 77 78 79 -81 82 83 86 87 88 91 -92 94 0
-14 -88 0
30 -88 0
14 -30 88 0
-14 30 -90 0
-88 -94 0
-75 77 78 79 83 86 93 0
-13 90 91 0
13 -29 -94 0
-11 29 32 72 73 75 76 77 78 79 -80 82 83 86 87 88 91 -92 94 0
-29 -87 -90 -91 0
-11 -13 32 72 73 75 76 77 78 79 -81 82 83 86 87 88 91 -92 94 0
-11 -16 29 72 73 75 76 77 78 79 82 83 86 87 88 91 -92 94 0
29 88 89 91 0
15 89 0
-31 89 0
14 90 0
-30 90 0
-13 88 89 91 0
-13 29 91 0
80 -94 0
13 -87 -90 -91 0
16 32 -74 76 94 -99 -100 102 103 104 105 106 107 108 109 110 -111 -113 0
-87 -94 0
-83 -94 0
13 -88 -91 0
13 -32 -89 -90 -91 0
90 -94 0
5 -78 -82 0
-24 -81 -97 -101 111 0
-13 -16 32 87 88 91 0
89 -94 0
-21 -78 -82 0
-91 -94 0
5 -8 24 78 79 96 -111 0
1 3 4 -85 92 0
1 -84 92 0
92 -94 0
-82 86 93 0
75 82 91 -92 -93 0
-13 27 32 72 73 75 76 77 78 79 82 83 86 87 88 91 -92 94 0
-75 -94 0
-82 -94 0
92 93 0
-99 103 -106 -111 -112 0
-79 -97 110 0
75 -76 82 -92 -93 0
13 16 -89 -90 -91 0
-94 -109 -113 0
-78 -94 0
12 -28 76 0
-74 76 99 104 105 106 -107 110 112 0
-94 -105 -113 0
-16 27 29 72 73 75 76 77 78 79 82 83 86 87 88 91 -92 94 0
-100 -103 110 112 0
6 -22 78 0
-6 22 -81 0
5 -21 79 0
-21 79 81 -111 0
-5 21 -97 110 0
-74 76 -100 104 105 106 -107 110 112 0
5 79 81 -110 0
97 -111 0
5 -77 -81 -82 0
8 -24 83 0
82 -83 -92 -93 0
97 -110 0
-78 -97 110 0
-79 -92 -93 0
5 8 78 79 83 96 -110 0
-8 24 77 78 79 82 0
-8 24 82 -92 -93 0
16 32 -74 76 94 99 100 102 103 104 105 106 107 108 109 110 -111 -113 0
5 8 -80 -81 -82 0
10 11 -25 -74 -75 0
-94 111 -113 0
100 103 -104 -111 -112 0
-99 100 -112 0
100 -110 -111 -112 0
-76 100 103 -111 -112 0
-16 -32 -74 76 94 99 100 102 103 104 105 106 107 108 109 110 -111 -113 0
8 -21 -80 -81 -82 0
-16 -32 -74 76 94 -99 -100 102 103 104 105 106 107 108 109 110 -111 -113 0
-13 -16 27 72 73 75 76 77 78 79 -80 82 83 86 87 88 91 -92 94 0
-29 -88 -90 -91 0
-94 -108 -113 0
99 -103 110 112 0
99 111 112 0
-79 -97 111 0
-99 103 -104 -111 -112 0
99 -100 112 0
-94 -102 -113 0
-94 -107 -113 0
-94 -104 -113 0
74 75 82 -92 -93 0
-81 -83 -97 -101 110 0
-94 -106 -113 0
-94 99 -100 -113 0
-94 -103 -113 0
-100 111 112 0
74 -99 103 -111 -112 0
10 -25 -27 -74 -75 0
-94 -110 -113 0
-99 -110 -111 -112 0
-94 -99 100 -113 0
93 -112 -113 0
-93 112 -113 0
-3 -33 -114 0
3 33 -114 0
-19 -34 -115 0
19 34 -115 0
-5 -35 -116 0
5 35 -116 0
-21 -36 -117 0
100 103 -106 -111 -112 0
21 36 -117 0
-7 -37 -118 0
8 -81 -97 -101 111 0
7 37 -118 0
-23 -38 -119 0
23 38 -119 0
-7 -39 -120 0
16 -29 -89 -90 -91 0
7 39 -120 0
-23 -40 -121 0
-21 -24 78 79 83 96 -110 0
23 40 -121 0
-11 -41 -122 0
11 41 -122 0
-27 -42 -123 0
27 42 -123 0
-10 -43 -124 0
10 43 -124 0
-26 -44 -125 0
26 44 -125 0
-9 -45 -126 0
-29 -32 -89 -90 -91 0
4 -17 -19 -85 92 0
9 45 -126 0
-25 -46 -127 0
-17 -19 -20 -85 92 0
9 11 -26 -74 -75 0
25 46 -127 0
-12 -47 -128 0
-81 -96 -97 -101 110 0
12 47 -128 0
-28 -48 -129 0
-21 79 81 -110 0
28 48 -129 0
-13 -49 -130 0
-21 78 79 101 -111 0
-21 -24 -80 -81 -82 0
13 49 -130 0
-29 -50 -131 0
11 -25 -26 -74 -75 0
29 50 -131 0
-15 -51 -132 0
11 -25 -26 -27 -75 0
15 51 -132 0
31 52 70 71 98 113 114 115 116 117 118 119 120 121 122 123 124 125 126 127 128 129 130 131 132 133 134 135 136 137 138 139 140 141 142 143 144 145 146 147 148 149 0
5 -24 -80 -81 -82 0
31 52 70 -71 -98 113 114 115 116 117 118 119 120 121 122 123 124 125 126 127 128 129 130 131 132 133 134 135 136 137 138 139 140 141 142 143 144 145 146 147 148 149 0
-53 -95 -133 0
53 95 -133 0
-2 -54 -134 0
2 54 -134 0
-18 -55 -135 0
4 -17 -19 -20 -85 86 0
18 55 -135 0
-1 -56 -136 0
1 56 -136 0
-17 -57 -137 0
4 -17 -20 86 -92 0
-21 78 79 101 -110 0
17 57 -137 0
-4 -58 -138 0
4 58 -138 0
-20 -59 -139 0
-3 -17 19 86 -92 0
20 59 -139 0
-3 -60 -140 0
3 60 -140 0
-19 -61 -141 0
19 61 -141 0
-62 -102 -142 0
62 102 -142 0
-14 -63 -143 0
-81 -96 -97 -101 111 0
5 -24 78 79 83 96 -110 0
14 63 -143 0
-30 -64 -144 0
100 103 -105 -111 -112 0
30 64 -144 0
-13 -65 -145 0
27 29 32 72 73 75 76 77 78 79 82 83 86 87 88 91 -92 94 0
13 65 -145 0
-29 -66 -146 0
-1 -3 19 84 -92 0
29 66 -146 0
-16 -67 -147 0
-25 -26 -27 -74 -75 0
9 -26 -27 -74 -75 0
16 67 -147 0
-32 -68 -148 0
32 68 -148 0
-15 -69 -149 0
-16 29 32 87 88 91 0
15 69 -149 0
100 103 107 -111 -112 0
74 100 103 -111 -112 0
-31 -52 -70 71 98 113 114 115 116 117 118 119 120 121 122 123 124 125 126 127 128 129 130 131 132 133 134 135 136 137 138 139 140 141 142 143 144 145 146 147 148 149 0
-31 -52 -70 -71 -98 113 114 115 116 117 118 119 120 121 122 123 124 125 126 127 128 129 130 131 132 133 134 135 136 137 138 139 140 141 142 143 144 145 146 147 148 149 0
-76 -99 103 -111 -112 0
